sat
(model 
  (define-fun TableCRC20 () (_ BitVec 32)
    #x94000c34)
  (define-fun TableCRC12 () (_ BitVec 32)
    #x06257210)
  (define-fun TableCRC05 () (_ BitVec 32)
    #x93b3b3c9)
  (define-fun TableCRC09 () (_ BitVec 32)
    #xf0d9dc2b)
  (define-fun TableEndCRC () (_ BitVec 32)
    #xc6047a6b)
  (define-fun TableStartCRC () (_ BitVec 32)
    #x472fd8ea)
  (define-fun TableCRC01 () (_ BitVec 32)
    #x0035b22b)
  (define-fun NewCRC10 () (_ BitVec 32)
    #xdb4754f6)
  (define-fun NewCRC08 () (_ BitVec 32)
    #x61f87c55)
  (define-fun TableCRC27 () (_ BitVec 32)
    #x9d5d167d)
  (define-fun TableCRC03 () (_ BitVec 32)
    #x921b7d1a)
  (define-fun TableCRC24 () (_ BitVec 32)
    #xa18f4ec8)
  (define-fun NewCRC14 () (_ BitVec 32)
    #x7dd85547)
  (define-fun TableCRC26 () (_ BitVec 32)
    #x31d48a61)
  (define-fun TableCRC06 () (_ BitVec 32)
    #x3441f3df)
  (define-fun NewCRC09 () (_ BitVec 32)
    #x1332fb8f)
  (define-fun TableCRC16 () (_ BitVec 32)
    #xd49fef65)
  (define-fun TableCRC11 () (_ BitVec 32)
    #xf6eb0396)
  (define-fun TableCRC08 () (_ BitVec 32)
    #x8c8fe619)
  (define-fun PayloadByte07 () (_ BitVec 32)
    #x00000065)
  (define-fun TableCRC13 () (_ BitVec 32)
    #xb5021ecc)
  (define-fun TableCRC14 () (_ BitVec 32)
    #x08a865a3)
  (define-fun TableCRC29 () (_ BitVec 32)
    #x5c0b9b8c)
  (define-fun TableCRC23 () (_ BitVec 32)
    #x2cabee33)
  (define-fun TableCRC18 () (_ BitVec 32)
    #xef6de9c9)
  (define-fun TableCRC02 () (_ BitVec 32)
    #x9e053bcc)
  (define-fun NewCRC13 () (_ BitVec 32)
    #xdb0b0775)
  (define-fun TableCRC07 () (_ BitVec 32)
    #xfeafec90)
  (define-fun NewCRC11 () (_ BitVec 32)
    #x59309602)
  (define-fun TableCRC15 () (_ BitVec 32)
    #x2233be60)
  (define-fun TableCRC00 () (_ BitVec 32)
    #x35b22bcc)
  (define-fun TableCRC17 () (_ BitVec 32)
    #xebcfa86c)
  (define-fun TableCRC28 () (_ BitVec 32)
    #x5a1f40c9)
  (define-fun TableCRC22 () (_ BitVec 32)
    #x5e0698d1)
  (define-fun TableCRC21 () (_ BitVec 32)
    #x1994ecb3)
  (define-fun TableCRC04 () (_ BitVec 32)
    #x118f907f)
  (define-fun TableCRC30 () (_ BitVec 32)
    #xcde13bff)
  (define-fun NewCRC12 () (_ BitVec 32)
    #x5f6178d3)
  (define-fun TableCRC19 () (_ BitVec 32)
    #x56ed0669)
  (define-fun TableCRC10 () (_ BitVec 32)
    #x6dc948e6)
  (define-fun TableCRC25 () (_ BitVec 32)
    #xbc9f9735)
  (define-fun NewCRC07 () (_ BitVec 32)
    #x419b3068)
  (define-fun PayloadByte15 () (_ BitVec 32)
    #x000000f1)
  (define-fun PayloadByte14 () (_ BitVec 32)
    #x0000007c)
  (define-fun PayloadByte13 () (_ BitVec 32)
    #x000000df)
  (define-fun PayloadByte12 () (_ BitVec 32)
    #x000000c1)
  (define-fun PayloadByte11 () (_ BitVec 32)
    #x0000009f)
  (define-fun PayloadByte10 () (_ BitVec 32)
    #x00000083)
  (define-fun PayloadByte09 () (_ BitVec 32)
    #x00000029)
  (define-fun PayloadByte08 () (_ BitVec 32)
    #x000000d0)
  (define-fun TableByte15 () (_ BitVec 32)
    #x00000096)
  (define-fun TableByte14 () (_ BitVec 32)
    #x00000018)
  (define-fun TableByte13 () (_ BitVec 32)
    #x00000069)
  (define-fun TableByte12 () (_ BitVec 32)
    #x000000c3)
  (define-fun TableByte11 () (_ BitVec 32)
    #x00000012)
  (define-fun TableByte10 () (_ BitVec 32)
    #x00000074)
  (define-fun TableByte09 () (_ BitVec 32)
    #x00000047)
  (define-fun TableByte08 () (_ BitVec 32)
    #x0000008b)
  (define-fun TableByte07 () (_ BitVec 32)
    #x00000000)
  (define-fun TableByte06 () (_ BitVec 32)
    #x00000000)
  (define-fun TableByte05 () (_ BitVec 32)
    #x00000000)
  (define-fun TableByte04 () (_ BitVec 32)
    #x00000000)
  (define-fun TableByte03 () (_ BitVec 32)
    #x00000000)
  (define-fun TableByte02 () (_ BitVec 32)
    #x00000000)
  (define-fun TableByte01 () (_ BitVec 32)
    #x00000033)
  (define-fun TableByte00 () (_ BitVec 32)
    #x00000090)
  (define-fun PayloadByte06 () (_ BitVec 32)
    #x000000c3)
  (define-fun PayloadByte05 () (_ BitVec 32)
    #x00000005)
  (define-fun PayloadByte04 () (_ BitVec 32)
    #x0000000f)
  (define-fun PayloadByte03 () (_ BitVec 32)
    #x00000092)
  (define-fun PayloadByte02 () (_ BitVec 32)
    #x00000056)
  (define-fun PayloadByte01 () (_ BitVec 32)
    #x00000093)
  (define-fun PayloadByte00 () (_ BitVec 32)
    #x0000005e)
  (define-fun EndCRC () (_ BitVec 32)
    #x3115cda3)
  (define-fun StartCRC () (_ BitVec 32)
    #x5749f971)
  (define-fun NewCRC15 () (_ BitVec 32)
    #x00000000)
)
